c description: There is a graph of 7 vertices with a 2-clique and a 4-coloring
c generator: CNFgen (0.9.0)
c copyright: (C) 2012-2020 Massimo Lauria <massimo.lauria@uniroma1.it>
c url: https://massimolauria.net/cnfgen
c
p cnf 63 226
-22 -23 0
-22 -24 0
-22 -25 0
-22 -26 0
-22 -27 0
-22 -28 0
-23 -24 0
-23 -25 0
-23 -26 0
-23 -27 0
-23 -28 0
-24 -25 0
-24 -26 0
-24 -27 0
-24 -28 0
-25 -26 0
-25 -27 0
-25 -28 0
-26 -27 0
-26 -28 0
-27 -28 0
22 23 24 25 26 27 28 0
-29 -30 0
-29 -31 0
-29 -32 0
-29 -33 0
-29 -34 0
-29 -35 0
-30 -31 0
-30 -32 0
-30 -33 0
-30 -34 0
-30 -35 0
-31 -32 0
-31 -33 0
-31 -34 0
-31 -35 0
-32 -33 0
-32 -34 0
-32 -35 0
-33 -34 0
-33 -35 0
-34 -35 0
29 30 31 32 33 34 35 0
-22 -29 0
-23 -30 0
-24 -31 0
-25 -32 0
-26 -33 0
-27 -34 0
-28 -35 0
1 -22 -30 0
1 -29 -23 0
2 -22 -31 0
2 -29 -24 0
3 -22 -32 0
3 -29 -25 0
4 -22 -33 0
4 -29 -26 0
5 -22 -34 0
5 -29 -27 0
6 -22 -35 0
6 -29 -28 0
7 -23 -31 0
7 -30 -24 0
8 -23 -32 0
8 -30 -25 0
9 -23 -33 0
9 -30 -26 0
10 -23 -34 0
10 -30 -27 0
11 -23 -35 0
11 -30 -28 0
12 -24 -32 0
12 -31 -25 0
13 -24 -33 0
13 -31 -26 0
14 -24 -34 0
14 -31 -27 0
15 -24 -35 0
15 -31 -28 0
16 -25 -33 0
16 -32 -26 0
17 -25 -34 0
17 -32 -27 0
18 -25 -35 0
18 -32 -28 0
19 -26 -34 0
19 -33 -27 0
20 -26 -35 0
20 -33 -28 0
21 -27 -35 0
21 -34 -28 0
-36 -37 0
-36 -38 0
-36 -39 0
-37 -38 0
-37 -39 0
-38 -39 0
36 37 38 39 0
-40 -41 0
-40 -42 0
-40 -43 0
-41 -42 0
-41 -43 0
-42 -43 0
40 41 42 43 0
-44 -45 0
-44 -46 0
-44 -47 0
-45 -46 0
-45 -47 0
-46 -47 0
44 45 46 47 0
-48 -49 0
-48 -50 0
-48 -51 0
-49 -50 0
-49 -51 0
-50 -51 0
48 49 50 51 0
-52 -53 0
-52 -54 0
-52 -55 0
-53 -54 0
-53 -55 0
-54 -55 0
52 53 54 55 0
-56 -57 0
-56 -58 0
-56 -59 0
-57 -58 0
-57 -59 0
-58 -59 0
56 57 58 59 0
-60 -61 0
-60 -62 0
-60 -63 0
-61 -62 0
-61 -63 0
-62 -63 0
60 61 62 63 0
-1 -36 -40 0
-1 -37 -41 0
-1 -38 -42 0
-1 -39 -43 0
-2 -36 -44 0
-2 -37 -45 0
-2 -38 -46 0
-2 -39 -47 0
-3 -36 -48 0
-3 -37 -49 0
-3 -38 -50 0
-3 -39 -51 0
-4 -36 -52 0
-4 -37 -53 0
-4 -38 -54 0
-4 -39 -55 0
-5 -36 -56 0
-5 -37 -57 0
-5 -38 -58 0
-5 -39 -59 0
-6 -36 -60 0
-6 -37 -61 0
-6 -38 -62 0
-6 -39 -63 0
-7 -40 -44 0
-7 -41 -45 0
-7 -42 -46 0
-7 -43 -47 0
-8 -40 -48 0
-8 -41 -49 0
-8 -42 -50 0
-8 -43 -51 0
-9 -40 -52 0
-9 -41 -53 0
-9 -42 -54 0
-9 -43 -55 0
-10 -40 -56 0
-10 -41 -57 0
-10 -42 -58 0
-10 -43 -59 0
-11 -40 -60 0
-11 -41 -61 0
-11 -42 -62 0
-11 -43 -63 0
-12 -44 -48 0
-12 -45 -49 0
-12 -46 -50 0
-12 -47 -51 0
-13 -44 -52 0
-13 -45 -53 0
-13 -46 -54 0
-13 -47 -55 0
-14 -44 -56 0
-14 -45 -57 0
-14 -46 -58 0
-14 -47 -59 0
-15 -44 -60 0
-15 -45 -61 0
-15 -46 -62 0
-15 -47 -63 0
-16 -48 -52 0
-16 -49 -53 0
-16 -50 -54 0
-16 -51 -55 0
-17 -48 -56 0
-17 -49 -57 0
-17 -50 -58 0
-17 -51 -59 0
-18 -48 -60 0
-18 -49 -61 0
-18 -50 -62 0
-18 -51 -63 0
-19 -52 -56 0
-19 -53 -57 0
-19 -54 -58 0
-19 -55 -59 0
-20 -52 -60 0
-20 -53 -61 0
-20 -54 -62 0
-20 -55 -63 0
-21 -56 -60 0
-21 -57 -61 0
-21 -58 -62 0
-21 -59 -63 0